p edge 20 42 10
v 1 5
v 2 9 11
v 1 12
v 1 16
v 2 13 15
v 2 3 17
v 2 6 18
v 1 2
v 4 7 14 19 20
v 4 1 4 8 10
e 1 6
e 1 10
e 1 14
e 1 18
e 2 5
e 2 6
e 2 8
e 2 12
e 2 14
e 2 15
e 2 16
e 3 9
e 3 11
e 4 14
e 4 17
e 4 19
e 5 9
e 5 10
e 5 13
e 5 19
e 6 13
e 6 18
e 7 12
e 7 14
e 7 18
e 8 11
e 8 12
e 8 14
e 8 15
e 9 12
e 10 15
e 10 16
e 11 13
e 12 13
e 12 14
e 13 18
e 14 18
e 15 18
e 16 20
e 17 19
e 18 20
e 19 20
